NAME : tsp45_23.196.tour
COMMENT : Length = 196
COMMENT : Found by LKH [Keld Helsgaun]
TYPE : TOUR
DIMENSION : 45
TOUR_SECTION
1
22
27
36
43
19
15
30
9
31
20
34
18
6
42
21
38
10
41
32
3
40
5
7
4
39
13
44
11
45
16
28
17
25
14
37
33
23
2
12
29
8
26
24
35
-1
EOF
